GLPSOL--GLPK LP/MIP Solver 5.0
Parameter(s) specified in the command line:
 --lp ../modeles/15_99.lp --log 15_99.log
Reading problem data from '../modeles/15_99.lp'...
1546 rows, 3000 columns, 10470 non-zeros
1485 integer variables, all of which are binary
4567 lines were read
GLPK Integer Optimizer 5.0
1546 rows, 3000 columns, 10470 non-zeros
1485 integer variables, all of which are binary
Preprocessing...
1470 constraint coefficient(s) were reduced
1546 rows, 2985 columns, 10455 non-zeros
1485 integer variables, all of which are binary
Scaling...
 A: min|aij| =  4.081e-04  max|aij| =  4.000e+00  ratio =  9.801e+03
GM: min|aij| =  1.005e-01  max|aij| =  9.950e+00  ratio =  9.900e+01
EQ: min|aij| =  1.010e-02  max|aij| =  1.000e+00  ratio =  9.900e+01
2N: min|aij| =  7.812e-03  max|aij| =  1.742e+00  ratio =  2.230e+02
Constructing initial basis...
Size of triangular part is 1546
Solving LP relaxation...
GLPK Simplex Optimizer 5.0
1546 rows, 2985 columns, 10455 non-zeros
      0: obj =   3.000000000e+01 inf =   7.450e+01 (31)
    134: obj =   4.969897959e-01 inf =   0.000e+00 (0)
*   502: obj =  -3.868055556e+00 inf =   7.153e-15 (0)
OPTIMAL LP SOLUTION FOUND
Integer optimization begins...
Long-step dual simplex will be used
+   502: mip =     not found yet >=              -inf        (1; 0)
+   506: >>>>>  -3.868055556e+00 >=  -3.868055556e+00 < 0.1% (3; 0)
+   506: mip =  -3.868055556e+00 >=     tree is empty   0.0% (0; 5)
INTEGER OPTIMAL SOLUTION FOUND
Time used:   0.0 secs
Memory used: 4.3 Mb (4520329 bytes)
